25
7
107
6 6 63 63 63 6 6 63 6 6 6 38 38 6 6 6 38 38 6 5 5 5 5 5 5 
0 0 0
0 1 42
0 2 85
0 3 128
0 4 170
0 5 51
0 6 93
0 7 136
0 8 179
0 9 221
0 10 103
0 11 145
0 12 188
0 13 231
0 14 273
0 15 155
0 16 197
0 17 240
0 18 283
0 19 325
0 20 206
0 21 248
0 22 291
0 23 334
0 24 376
1 0 42
1 1 0
1 2 43
1 3 86
1 4 128
1 5 93
1 6 51
1 7 94
1 8 137
1 9 179
1 10 145
1 11 103
1 12 146
1 13 189
1 14 231
1 15 197
1 16 155
1 17 198
1 18 241
1 19 283
1 20 248
1 21 206
1 22 249
1 23 292
1 24 334
2 0 85
2 1 43
2 2 0
2 3 43
2 4 85
2 5 136
2 6 94
2 7 51
2 8 94
2 9 136
2 10 188
2 11 146
2 12 103
2 13 146
2 14 188
2 15 240
2 16 198
2 17 155
2 18 198
2 19 240
2 20 291
2 21 249
2 22 206
2 23 249
2 24 291
3 0 128
3 1 86
3 2 43
3 3 0
3 4 42
3 5 179
3 6 137
3 7 94
3 8 51
3 9 93
3 10 231
3 11 189
3 12 146
3 13 103
3 14 145
3 15 283
3 16 241
3 17 198
3 18 155
3 19 197
3 20 334
3 21 292
3 22 249
3 23 206
3 24 248
4 0 170
4 1 128
4 2 85
4 3 42
4 4 0
4 5 221
4 6 179
4 7 136
4 8 93
4 9 51
4 10 273
4 11 231
4 12 188
4 13 145
4 14 103
4 15 325
4 16 283
4 17 240
4 18 197
4 19 155
4 20 376
4 21 334
4 22 291
4 23 248
4 24 206
5 0 51
5 1 93
5 2 136
5 3 179
5 4 221
5 5 0
5 6 42
5 7 85
5 8 128
5 9 170
5 10 52
5 11 94
5 12 137
5 13 180
5 14 222
5 15 104
5 16 146
5 17 189
5 18 232
5 19 274
5 20 155
5 21 197
5 22 240
5 23 283
5 24 325
6 0 93
6 1 51
6 2 94
6 3 137
6 4 179
6 5 42
6 6 0
6 7 43
6 8 86
6 9 128
6 10 94
6 11 52
6 12 95
6 13 138
6 14 180
6 15 146
6 16 104
6 17 147
6 18 190
6 19 232
6 20 197
6 21 155
6 22 198
6 23 241
6 24 283
7 0 136
7 1 94
7 2 51
7 3 94
7 4 136
7 5 85
7 6 43
7 7 0
7 8 43
7 9 85
7 10 137
7 11 95
7 12 52
7 13 95
7 14 137
7 15 189
7 16 147
7 17 104
7 18 147
7 19 189
7 20 240
7 21 198
7 22 155
7 23 198
7 24 240
8 0 179
8 1 137
8 2 94
8 3 51
8 4 93
8 5 128
8 6 86
8 7 43
8 8 0
8 9 42
8 10 180
8 11 138
8 12 95
8 13 52
8 14 94
8 15 232
8 16 190
8 17 147
8 18 104
8 19 146
8 20 283
8 21 241
8 22 198
8 23 155
8 24 197
9 0 221
9 1 179
9 2 136
9 3 93
9 4 51
9 5 170
9 6 128
9 7 85
9 8 42
9 9 0
9 10 222
9 11 180
9 12 137
9 13 94
9 14 52
9 15 274
9 16 232
9 17 189
9 18 146
9 19 104
9 20 325
9 21 283
9 22 240
9 23 197
9 24 155
10 0 103
10 1 145
10 2 188
10 3 231
10 4 273
10 5 52
10 6 94
10 7 137
10 8 180
10 9 222
10 10 0
10 11 42
10 12 85
10 13 128
10 14 170
10 15 52
10 16 94
10 17 137
10 18 180
10 19 222
10 20 103
10 21 145
10 22 188
10 23 231
10 24 273
11 0 145
11 1 103
11 2 146
11 3 189
11 4 231
11 5 94
11 6 52
11 7 95
11 8 138
11 9 180
11 10 42
11 11 0
11 12 43
11 13 86
11 14 128
11 15 94
11 16 52
11 17 95
11 18 138
11 19 180
11 20 145
11 21 103
11 22 146
11 23 189
11 24 231
12 0 188
12 1 146
12 2 103
12 3 146
12 4 188
12 5 137
12 6 95
12 7 52
12 8 95
12 9 137
12 10 85
12 11 43
12 12 0
12 13 43
12 14 85
12 15 137
12 16 95
12 17 52
12 18 95
12 19 137
12 20 188
12 21 146
12 22 103
12 23 146
12 24 188
13 0 231
13 1 189
13 2 146
13 3 103
13 4 145
13 5 180
13 6 138
13 7 95
13 8 52
13 9 94
13 10 128
13 11 86
13 12 43
13 13 0
13 14 42
13 15 180
13 16 138
13 17 95
13 18 52
13 19 94
13 20 231
13 21 189
13 22 146
13 23 103
13 24 145
14 0 273
14 1 231
14 2 188
14 3 145
14 4 103
14 5 222
14 6 180
14 7 137
14 8 94
14 9 52
14 10 170
14 11 128
14 12 85
14 13 42
14 14 0
14 15 222
14 16 180
14 17 137
14 18 94
14 19 52
14 20 273
14 21 231
14 22 188
14 23 145
14 24 103
15 0 155
15 1 197
15 2 240
15 3 283
15 4 325
15 5 104
15 6 146
15 7 189
15 8 232
15 9 274
15 10 52
15 11 94
15 12 137
15 13 180
15 14 222
15 15 0
15 16 42
15 17 85
15 18 128
15 19 170
15 20 51
15 21 93
15 22 136
15 23 179
15 24 221
16 0 197
16 1 155
16 2 198
16 3 241
16 4 283
16 5 146
16 6 104
16 7 147
16 8 190
16 9 232
16 10 94
16 11 52
16 12 95
16 13 138
16 14 180
16 15 42
16 16 0
16 17 43
16 18 86
16 19 128
16 20 93
16 21 51
16 22 94
16 23 137
16 24 179
17 0 240
17 1 198
17 2 155
17 3 198
17 4 240
17 5 189
17 6 147
17 7 104
17 8 147
17 9 189
17 10 137
17 11 95
17 12 52
17 13 95
17 14 137
17 15 85
17 16 43
17 17 0
17 18 43
17 19 85
17 20 136
17 21 94
17 22 51
17 23 94
17 24 136
18 0 283
18 1 241
18 2 198
18 3 155
18 4 197
18 5 232
18 6 190
18 7 147
18 8 104
18 9 146
18 10 180
18 11 138
18 12 95
18 13 52
18 14 94
18 15 128
18 16 86
18 17 43
18 18 0
18 19 42
18 20 179
18 21 137
18 22 94
18 23 51
18 24 93
19 0 325
19 1 283
19 2 240
19 3 197
19 4 155
19 5 274
19 6 232
19 7 189
19 8 146
19 9 104
19 10 222
19 11 180
19 12 137
19 13 94
19 14 52
19 15 170
19 16 128
19 17 85
19 18 42
19 19 0
19 20 221
19 21 179
19 22 136
19 23 93
19 24 51
20 0 206
20 1 248
20 2 291
20 3 334
20 4 376
20 5 155
20 6 197
20 7 240
20 8 283
20 9 325
20 10 103
20 11 145
20 12 188
20 13 231
20 14 273
20 15 51
20 16 93
20 17 136
20 18 179
20 19 221
20 20 0
20 21 42
20 22 85
20 23 128
20 24 170
21 0 248
21 1 206
21 2 249
21 3 292
21 4 334
21 5 197
21 6 155
21 7 198
21 8 241
21 9 283
21 10 145
21 11 103
21 12 146
21 13 189
21 14 231
21 15 93
21 16 51
21 17 94
21 18 137
21 19 179
21 20 42
21 21 0
21 22 43
21 23 86
21 24 128
22 0 291
22 1 249
22 2 206
22 3 249
22 4 291
22 5 240
22 6 198
22 7 155
22 8 198
22 9 240
22 10 188
22 11 146
22 12 103
22 13 146
22 14 188
22 15 136
22 16 94
22 17 51
22 18 94
22 19 136
22 20 85
22 21 43
22 22 0
22 23 43
22 24 85
23 0 334
23 1 292
23 2 249
23 3 206
23 4 248
23 5 283
23 6 241
23 7 198
23 8 155
23 9 197
23 10 231
23 11 189
23 12 146
23 13 103
23 14 145
23 15 179
23 16 137
23 17 94
23 18 51
23 19 93
23 20 128
23 21 86
23 22 43
23 23 0
23 24 42
24 0 376
24 1 334
24 2 291
24 3 248
24 4 206
24 5 325
24 6 283
24 7 240
24 8 197
24 9 155
24 10 273
24 11 231
24 12 188
24 13 145
24 14 103
24 15 221
24 16 179
24 17 136
24 18 93
24 19 51
24 20 170
24 21 128
24 22 85
24 23 42
24 24 0
